NAME /Users/henri/Research/solvers/instances/idol-instances/robust/collection/cbp_Subramanyam_et_al_2020/CapBud_N25_4/models/uncertain_technology_matrix/
ROWS
 N  OBJ
 L  capacity
 L  c_3775
 L  c_3776
 L  c_3777
 L  c_3778
 L  c_3779
 L  c_3780
 L  c_3781
 L  c_3782
 L  c_3783
 L  c_3784
 L  c_3785
 L  c_3786
 L  c_3787
 L  c_3788
 L  c_3789
 L  c_3790
 L  c_3791
 L  c_3792
 L  c_3793
 L  c_3794
 L  c_3795
 L  c_3796
 L  c_3797
 L  c_3798
 L  c_3799
COLUMNS
    MARKER    'MARKER'                 'INTORG'
    x_0        OBJ        0.0271661
    x_0        c_3775     1
    x_0        capacity   0.00543321
    x_1        OBJ        5.94218
    x_1        c_3776     1
    x_1        capacity   1.18844
    x_2        OBJ        2.06084
    x_2        c_3777     1
    x_2        capacity   0.412167
    x_3        OBJ        6.08112
    x_3        c_3778     1
    x_3        capacity   1.21622
    x_4        OBJ        8.52504
    x_4        c_3779     1
    x_4        capacity   1.70501
    x_5        OBJ        3.95476
    x_5        c_3780     1
    x_5        capacity   0.790952
    x_6        OBJ        4.74772
    x_6        c_3781     1
    x_6        capacity   0.949545
    x_7        OBJ        9.71127
    x_7        c_3782     1
    x_7        capacity   1.94225
    x_8        OBJ        3.88699
    x_8        c_3783     1
    x_8        capacity   0.777398
    x_9        OBJ        6.08068
    x_9        c_3784     1
    x_9        capacity   1.21614
    x_10       OBJ        3.09647
    x_10       c_3785     1
    x_10       capacity   0.619294
    x_11       OBJ        7.9319
    x_11       c_3786     1
    x_11       capacity   1.58638
    x_12       OBJ        4.09284
    x_12       c_3787     1
    x_12       capacity   0.818568
    x_13       OBJ        8.46493
    x_13       c_3788     1
    x_13       capacity   1.69299
    x_14       OBJ        5.3618
    x_14       c_3789     1
    x_14       capacity   1.07236
    x_15       OBJ        0.849326
    x_15       c_3790     1
    x_15       capacity   0.169865
    x_16       OBJ        3.1998
    x_16       c_3791     1
    x_16       capacity   0.63996
    x_17       OBJ        2.48051
    x_17       c_3792     1
    x_17       capacity   0.496102
    x_18       OBJ        6.46446
    x_18       c_3793     1
    x_18       capacity   1.29289
    x_19       OBJ        8.30086
    x_19       c_3794     1
    x_19       capacity   1.66017
    x_20       OBJ        9.65377
    x_20       c_3795     1
    x_20       capacity   1.93075
    x_21       OBJ        8.98502
    x_21       c_3796     1
    x_21       capacity   1.797
    x_22       OBJ        4.8007
    x_22       c_3797     1
    x_22       capacity   0.960141
    x_23       OBJ        3.66381
    x_23       c_3798     1
    x_23       capacity   0.732763
    x_24       OBJ        3.59026
    x_24       c_3799     1
    x_24       capacity   0.718052
    y_0        OBJ        0.0217329
    y_0        c_3775     1
    y_0        capacity   0.00543321
    y_1        OBJ        4.75374
    y_1        c_3776     1
    y_1        capacity   1.18844
    y_2        OBJ        1.64867
    y_2        c_3777     1
    y_2        capacity   0.412167
    y_3        OBJ        4.8649
    y_3        c_3778     1
    y_3        capacity   1.21622
    y_4        OBJ        6.82003
    y_4        c_3779     1
    y_4        capacity   1.70501
    y_5        OBJ        3.16381
    y_5        c_3780     1
    y_5        capacity   0.790952
    y_6        OBJ        3.79818
    y_6        c_3781     1
    y_6        capacity   0.949545
    y_7        OBJ        7.76902
    y_7        c_3782     1
    y_7        capacity   1.94225
    y_8        OBJ        3.10959
    y_8        c_3783     1
    y_8        capacity   0.777398
    y_9        OBJ        4.86455
    y_9        c_3784     1
    y_9        capacity   1.21614
    y_10       OBJ        2.47718
    y_10       c_3785     1
    y_10       capacity   0.619294
    y_11       OBJ        6.34552
    y_11       c_3786     1
    y_11       capacity   1.58638
    y_12       OBJ        3.27427
    y_12       c_3787     1
    y_12       capacity   0.818568
    y_13       OBJ        6.77194
    y_13       c_3788     1
    y_13       capacity   1.69299
    y_14       OBJ        4.28944
    y_14       c_3789     1
    y_14       capacity   1.07236
    y_15       OBJ        0.679461
    y_15       c_3790     1
    y_15       capacity   0.169865
    y_16       OBJ        2.55984
    y_16       c_3791     1
    y_16       capacity   0.63996
    y_17       OBJ        1.98441
    y_17       c_3792     1
    y_17       capacity   0.496102
    y_18       OBJ        5.17157
    y_18       c_3793     1
    y_18       capacity   1.29289
    y_19       OBJ        6.64069
    y_19       c_3794     1
    y_19       capacity   1.66017
    y_20       OBJ        7.72301
    y_20       c_3795     1
    y_20       capacity   1.93075
    y_21       OBJ        7.18802
    y_21       c_3796     1
    y_21       capacity   1.797
    y_22       OBJ        3.84056
    y_22       c_3797     1
    y_22       capacity   0.960141
    y_23       OBJ        2.93105
    y_23       c_3798     1
    y_23       capacity   0.732763
    y_24       OBJ        2.87221
    y_24       c_3799     1
    y_24       capacity   0.718052
    MARKER    'MARKER'                 'INTEND'
RHS
    RHS       capacity   65.9771
    RHS       c_3775     1
    RHS       c_3776     1
    RHS       c_3777     1
    RHS       c_3778     1
    RHS       c_3779     1
    RHS       c_3780     1
    RHS       c_3781     1
    RHS       c_3782     1
    RHS       c_3783     1
    RHS       c_3784     1
    RHS       c_3785     1
    RHS       c_3786     1
    RHS       c_3787     1
    RHS       c_3788     1
    RHS       c_3789     1
    RHS       c_3790     1
    RHS       c_3791     1
    RHS       c_3792     1
    RHS       c_3793     1
    RHS       c_3794     1
    RHS       c_3795     1
    RHS       c_3796     1
    RHS       c_3797     1
    RHS       c_3798     1
    RHS       c_3799     1
BOUNDS
 LI BND       x_0        0
 UI BND       x_0        1
 LI BND       x_1        0
 UI BND       x_1        1
 LI BND       x_2        0
 UI BND       x_2        1
 LI BND       x_3        0
 UI BND       x_3        1
 LI BND       x_4        0
 UI BND       x_4        1
 LI BND       x_5        0
 UI BND       x_5        1
 LI BND       x_6        0
 UI BND       x_6        1
 LI BND       x_7        0
 UI BND       x_7        1
 LI BND       x_8        0
 UI BND       x_8        1
 LI BND       x_9        0
 UI BND       x_9        1
 LI BND       x_10       0
 UI BND       x_10       1
 LI BND       x_11       0
 UI BND       x_11       1
 LI BND       x_12       0
 UI BND       x_12       1
 LI BND       x_13       0
 UI BND       x_13       1
 LI BND       x_14       0
 UI BND       x_14       1
 LI BND       x_15       0
 UI BND       x_15       1
 LI BND       x_16       0
 UI BND       x_16       1
 LI BND       x_17       0
 UI BND       x_17       1
 LI BND       x_18       0
 UI BND       x_18       1
 LI BND       x_19       0
 UI BND       x_19       1
 LI BND       x_20       0
 UI BND       x_20       1
 LI BND       x_21       0
 UI BND       x_21       1
 LI BND       x_22       0
 UI BND       x_22       1
 LI BND       x_23       0
 UI BND       x_23       1
 LI BND       x_24       0
 UI BND       x_24       1
 LI BND       y_0        0
 UI BND       y_0        1
 LI BND       y_1        0
 UI BND       y_1        1
 LI BND       y_2        0
 UI BND       y_2        1
 LI BND       y_3        0
 UI BND       y_3        1
 LI BND       y_4        0
 UI BND       y_4        1
 LI BND       y_5        0
 UI BND       y_5        1
 LI BND       y_6        0
 UI BND       y_6        1
 LI BND       y_7        0
 UI BND       y_7        1
 LI BND       y_8        0
 UI BND       y_8        1
 LI BND       y_9        0
 UI BND       y_9        1
 LI BND       y_10       0
 UI BND       y_10       1
 LI BND       y_11       0
 UI BND       y_11       1
 LI BND       y_12       0
 UI BND       y_12       1
 LI BND       y_13       0
 UI BND       y_13       1
 LI BND       y_14       0
 UI BND       y_14       1
 LI BND       y_15       0
 UI BND       y_15       1
 LI BND       y_16       0
 UI BND       y_16       1
 LI BND       y_17       0
 UI BND       y_17       1
 LI BND       y_18       0
 UI BND       y_18       1
 LI BND       y_19       0
 UI BND       y_19       1
 LI BND       y_20       0
 UI BND       y_20       1
 LI BND       y_21       0
 UI BND       y_21       1
 LI BND       y_22       0
 UI BND       y_22       1
 LI BND       y_23       0
 UI BND       y_23       1
 LI BND       y_24       0
 UI BND       y_24       1
ENDATA
